Set parameter Username
Academic license - for non-commercial use only - expires 2023-12-01
Set parameter TimeLimit to value 3600
Set parameter MIPGap to value 1e-06
Set parameter Threads to value 1
Set parameter NodefileStart to value 0.5
Set parameter NodefileDir to value "/home/jossian/Downloads"
Set parameter MIPGap to value 1e-06
Set parameter Threads to value 1
Set parameter NodefileDir to value "/home/jossian/Downloads"
Set parameter NodefileStart to value 0.5
Set parameter TimeLimit to value 3600
Gurobi Optimizer version 10.0.0 build v10.0.0rc2 (linux64)

CPU model: Intel(R) Core(TM) i5-1035G1 CPU @ 1.00GHz, instruction set [SSE2|AVX|AVX2|AVX512]
Thread count: 4 physical cores, 8 logical processors, using up to 1 threads

Optimize a model with 134551 rows, 45150 columns and 314250 nonzeros
Model fingerprint: 0xd3c60974
Variable types: 0 continuous, 45150 integer (45150 binary)
Coefficient statistics:
  Matrix range     [1e+00, 2e+01]
  Objective range  [1e+00, 5e+01]
  Bounds range     [0e+00, 0e+00]
  RHS range        [1e+00, 9e+02]
Found heuristic solution: objective 14.0000000
Presolve removed 44850 rows and 0 columns
Presolve time: 1.07s
Presolved: 89701 rows, 45150 columns, 179700 nonzeros
Variable types: 0 continuous, 45150 integer (45150 binary)
Found heuristic solution: objective 55446.000000
Root relaxation presolved: 89701 rows, 45150 columns, 179700 nonzeros


Root simplex log...

Iteration    Objective       Primal Inf.    Dual Inf.      Time
   37457    3.5164835e+05   1.007941e+04   0.000000e+00      5s
   54192    2.6004480e+05   5.205376e+03   0.000000e+00     10s
   54886    2.5910971e+05   0.000000e+00   0.000000e+00     11s

Root relaxation: objective 2.591097e+05, 54886 iterations, 9.55 seconds (12.06 work units)

    Nodes    |    Current Node    |     Objective Bounds      |     Work
 Expl Unexpl |  Obj  Depth IntInf | Incumbent    BestBd   Gap | It/Node Time

     0     0 259109.707    0 45150 55446.0000 259109.707   367%     -   11s
H    0     0                    234594.00000 259109.707  10.5%     -   11s
     0     0 246445.770    0 24753 234594.000 246445.770  5.05%     -   23s
     0     0 239067.234    0 11083 234594.000 239067.234  1.91%     -   34s
     0     0 238596.682    0 10638 234594.000 238596.682  1.71%     -   40s
     0     0 237321.952    0 10238 234594.000 237321.952  1.16%     -   58s
     0     0 237018.802    0 10275 234594.000 237018.802  1.03%     -   70s
     0     0 237001.407    0 10279 234594.000 237001.407  1.03%     -   73s
     0     0 236957.904    0 9783 234594.000 236957.904  1.01%     -   88s
H    0     0                    236127.00000 236957.904  0.35%     -   89s
H    0     0                    236428.00000 236957.904  0.22%     -   89s
     0     0 236957.311    0 9779 236428.000 236957.311  0.22%     -   89s
     0     0 236954.011    0 10294 236428.000 236954.011  0.22%     -  100s
     0     0 236954.011    0 18707 236428.000 236954.011  0.22%     -  103s
     0     0 236954.011    0 10852 236428.000 236954.011  0.22%     -  117s
     0     0 236954.011    0 10248 236428.000 236954.011  0.22%     -  127s
     0     0 236954.011    0 9767 236428.000 236954.011  0.22%     -  135s
     0     0 236954.011    0 10287 236428.000 236954.011  0.22%     -  137s
     0     0 236954.011    0 10291 236428.000 236954.011  0.22%     -  137s
     0     0 236954.011    0 10294 236428.000 236954.011  0.22%     -  140s
     0     0 236947.069    0 10311 236428.000 236947.069  0.22%     -  145s
     0     0 236947.069    0 10311 236428.000 236947.069  0.22%     -  145s
     0     0 236947.069    0 16109 236428.000 236947.069  0.22%     -  167s
     0     0 236947.069    0 10659 236428.000 236947.069  0.22%     -  179s
     0     0 236947.069    0 9764 236428.000 236947.069  0.22%     -  188s
     0     0 236947.069    0 9772 236428.000 236947.069  0.22%     -  194s
     0     0 236947.069    0 9791 236428.000 236947.069  0.22%     -  196s
     0     0 236947.069    0 9792 236428.000 236947.069  0.22%     -  197s
     0     0 236947.069    0 9791 236428.000 236947.069  0.22%     -  203s
     0     0 236947.069    0 9793 236428.000 236947.069  0.22%     -  204s
     0     0 236941.169    0 10315 236428.000 236941.169  0.22%     -  209s
     0     0 236941.169    0 10315 236428.000 236941.169  0.22%     -  209s
     0     2 236941.167    0 10315 236428.000 236941.167  0.22%     -  224s
     1     4 236741.055    1 9841 236428.000 236941.147  0.22%  3883  228s
     2     5 236920.472    1 9691 236428.000 236920.472  0.21%  2502  230s
     5     7 236774.325    3 9595 236428.000 236910.718  0.20%  2413  237s
     6     8 236834.801    3 9466 236428.000 236834.801  0.17%  2444  240s
     8    10 236775.570    4 9394 236428.000 236775.570  0.15%  2391  246s
    10    12 236466.422    5 10201 236428.000 236774.035  0.15%  2319  250s
    13    15 236618.454    7 8883 236428.000 236774.035  0.15%  2253  256s
    17    15 236521.962    9 8835 236428.000 236774.035  0.15%  1975  260s
    33    13 236654.117    4 9642 236428.000 236772.950  0.15%  1231  266s
    36    16 236498.748    7 8814 236428.000 236772.950  0.15%  1243  270s
    42    14 236542.838    4 9508 236428.000 236741.046  0.13%  1172  275s
    48    13 236693.083    2 9711 236428.000 236741.022  0.13%  1146  280s
    51    16 236488.799    5 9128 236428.000 236741.022  0.13%  1164  285s
    58    15 236489.365    3 9417 236428.000 236732.000  0.13%  1123  291s
    63    14 236565.283    4 9630 236428.000 236731.852  0.13%  1100  296s
    69    14 236435.019    5 9136 236428.000 236731.852  0.13%  1081  301s
    72    13 236572.349    3 9739 236428.000 236714.039  0.12%  1082  305s
    78    12 236609.087    5 9326 236428.000 236714.038  0.12%  1068  310s
    81    15 236434.062    8 8770 236428.000 236714.038  0.12%  1084  315s
    89    11 236439.892    3 9637 236428.000 236687.515  0.11%  1039  320s
    95     9 236529.427    5 8939 236428.000 236629.365  0.09%  1022  325s
   103     7 236454.080    8 8935 236428.000 236600.754  0.07%   997  330s

Cutting planes:
  GUB cover: 65
  Zero half: 2
  RLT: 167

Explored 111 nodes (319389 simplex iterations) in 333.90 seconds (839.59 work units)
Thread count was 1 (of 8 available processors)

Solution count 5: 236428 236127 234594 ... 14

Optimal solution found (tolerance 1.00e-06)
Best objective 2.364280000000e+05, best bound 2.364280000000e+05, gap 0.0000%

User-callback calls 15708, time in user-callback 0.03 sec
